NAME : XML50_2173_25
COMMENT : Generated as the XML100 dataset from the CVRPLIB
TYPE : CVRP
DIMENSION : 51
EDGE_WEIGHT_TYPE : EUC_2D
CAPACITY : 124
NODE_COORD_SECTION
1    500  500 
2    114  497 
3    85   586 
4    12   846 
5    544  746 
6    243  559 
7    127  674 
8    674  291 
9    928  317 
10   607  713 
11   413  552 
12   544  355 
13   681  156 
14   647  435 
15   983  747 
16   255  103 
17   543  396 
18   435  216 
19   948  161 
20   868  52  
21   846  305 
22   641  272 
23   251  349 
24   9    834 
25   941  719 
26   712  271 
27   205  907 
28   847  938 
29   635  106 
30   404  945 
31   73   891 
32   809  481 
33   592  272 
34   578  938 
35   380  465 
36   369  703 
37   65   691 
38   690  990 
39   170  387 
40   180  965 
41   864  90  
42   25   890 
43   732  611 
44   627  635 
45   78   633 
46   685  658 
47   553  688 
48   694  999 
49   502  66  
50   204  522 
51   705  81  
DEMAND_SECTION
1    0   
2    9   
3    8   
4    2   
5    2   
6    8   
7    52  
8    50  
9    55  
10   4   
11   6   
12   7   
13   6   
14   9   
15   1   
16   5   
17   4   
18   6   
19   5   
20   2   
21   10  
22   84  
23   4   
24   3   
25   8   
26   100 
27   9   
28   1   
29   2   
30   6   
31   4   
32   9   
33   7   
34   8   
35   2   
36   75  
37   86  
38   6   
39   9   
40   3   
41   10  
42   8   
43   10  
44   8   
45   1   
46   4   
47   4   
48   7   
49   5   
50   3   
51   2   
DEPOT_SECTION
1
-1
EOF
